c instancia_13  vars=15  clausulas=25  k=2
p cnf 15 25
-12 14 0
-3 7 0
12 14 0
5 -14 0
-8 10 0
-8 5 0
3 -2 0
-9 15 0
-4 12 0
3 -7 0
-4 -8 0
6 3 0
-13 6 0
-4 6 0
11 5 0
2 9 0
-3 -1 0
13 6 0
-11 4 0
7 -14 0
2 7 0
15 -6 0
-10 -7 0
4 -8 0
-1 -6 0
